set Stages := InitialStage FutureStage;

set Nodes := RootNode                             
            EarlyLeaveShortCommuteEarlyArrivalNode
            EarlyLeaveShortCommuteNormalArrivalNode
            EarlyLeaveShortCommuteLateArrivalNode
            NormalLeaveShortCommuteEarlyArrivalNode
            NormalLeaveShortCommuteNormalArrivalNode
            NormalLeaveShortCommuteLateArrivalNode
            LateLeaveShortCommuteEarlyArrivalNode
            LateLeaveShortCommuteNormalArrivalNode
            LateLeaveShortCommuteLateArrivalNode
;

param NodeStage :=  
    RootNode                    InitialStage
            EarlyLeaveShortCommuteEarlyArrivalNode      FutureStage
            EarlyLeaveShortCommuteNormalArrivalNode     FutureStage
            EarlyLeaveShortCommuteLateArrivalNode       FutureStage
            NormalLeaveShortCommuteEarlyArrivalNode     FutureStage
            NormalLeaveShortCommuteNormalArrivalNode    FutureStage
            NormalLeaveShortCommuteLateArrivalNode      FutureStage
            LateLeaveShortCommuteEarlyArrivalNode       FutureStage
            LateLeaveShortCommuteNormalArrivalNode      FutureStage
            LateLeaveShortCommuteLateArrivalNode        FutureStage;

set Children[RootNode] :=
            EarlyLeaveShortCommuteEarlyArrivalNode
            EarlyLeaveShortCommuteNormalArrivalNode
            EarlyLeaveShortCommuteLateArrivalNode
            NormalLeaveShortCommuteEarlyArrivalNode
            NormalLeaveShortCommuteNormalArrivalNode
            NormalLeaveShortCommuteLateArrivalNode
            LateLeaveShortCommuteEarlyArrivalNode
            LateLeaveShortCommuteNormalArrivalNode
            LateLeaveShortCommuteLateArrivalNode;


param ConditionalProbability :=  RootNode       	1.0
            EarlyLeaveShortCommuteEarlyArrivalNode  0.1
            EarlyLeaveShortCommuteNormalArrivalNode 0.1
            EarlyLeaveShortCommuteLateArrivalNode   0.1
            NormalLeaveShortCommuteEarlyArrivalNode 0.1
            NormalLeaveShortCommuteNormalArrivalNode 0.2
            NormalLeaveShortCommuteLateArrivalNode  0.1
            LateLeaveShortCommuteEarlyArrivalNode   0.1
            LateLeaveShortCommuteNormalArrivalNode  0.1
            LateLeaveShortCommuteLateArrivalNode    0.1;

set Scenarios :=
            EarlyLeaveShortCommuteEarlyArrival
            EarlyLeaveShortCommuteNormalArrival
            EarlyLeaveShortCommuteLateArrival
            NormalLeaveShortCommuteEarlyArrival
            NormalLeaveShortCommuteNormalArrival
            NormalLeaveShortCommuteLateArrival
            LateLeaveShortCommuteEarlyArrival
            LateLeaveShortCommuteNormalArrival
            LateLeaveShortCommuteLateArrival;

param ScenarioLeafNode := 
            EarlyLeaveShortCommuteEarlyArrival  EarlyLeaveShortCommuteEarlyArrivalNode
            EarlyLeaveShortCommuteNormalArrival EarlyLeaveShortCommuteNormalArrivalNode
            EarlyLeaveShortCommuteLateArrival   EarlyLeaveShortCommuteLateArrivalNode
            NormalLeaveShortCommuteEarlyArrival NormalLeaveShortCommuteEarlyArrivalNode
            NormalLeaveShortCommuteNormalArrival NormalLeaveShortCommuteNormalArrivalNode
            NormalLeaveShortCommuteLateArrival  NormalLeaveShortCommuteLateArrivalNode
            LateLeaveShortCommuteEarlyArrival   LateLeaveShortCommuteEarlyArrivalNode
            LateLeaveShortCommuteNormalArrival  LateLeaveShortCommuteNormalArrivalNode
            LateLeaveShortCommuteLateArrival    LateLeaveShortCommuteLateArrivalNode
            ;

set StageVariables[InitialStage] := P_PV_Output_ini[*]
                                    P_Grid_Output_ini[*]
                                    P_ESS_Output_ini[*]
                                    P_EV_ChargeHome_ini[*]
                                    P_EV_ChargeAway_ini[*];

set StageVariables[FutureStage] :=  P_PV_Output_rec[*]
                                    P_Grid_Output_rec[*]
                                    P_ESS_Output_rec[*]
                                    P_EV_ChargeHome_rec[*]
                                    P_EV_ChargeAway_rec[*];

param StageCost := InitialStage InitialStageCost
                   FutureStage  FutureStageCost;
                   
param ScenarioBasedData := False;
                   
                     
